72 22 9 48 26 59 41 63 53 74 64 84 85 94 58 91 87 56 12 11 32 1 55 23 6 27 33 38 81 77 52 43 28 96 29 45 93 46 79 39 51 65 76 17 2 15 62 75 10 3 95 61 40 57 98 8 20 60 89 36 19 88 83 16 86 25 21 31 82 35 47 18 7 73 97 14 78 69 50 0 92 90 5 13 67 66 70 68 80 54 30 37 24 34 71 42 4 44 49 99 

